Version identifier: 22.1.1.0 | 2022-11-28 | 9160aff4d
CPXPARAM_ClockType                               1
CPXPARAM_Read_DataCheck                          1
CPXPARAM_Threads                                 1
CPXPARAM_TimeLimit                               7200
CPXPARAM_MIP_Tolerances_AbsMIPGap                0
CPXPARAM_MIP_Tolerances_MIPGap                   0
CPXPARAM_MIP_Tolerances_Integrality              0
Tried aggregator 4 times.
MIP Presolve eliminated 87435 rows and 2873 columns.
MIP Presolve modified 158 coefficients.
Aggregator did 673 substitutions.
Reduced MIP has 3768 rows, 2579 columns, and 15237 nonzeros.
Reduced MIP has 2579 binaries, 0 generals, 0 SOSs, and 0 indicators.
Presolve time = 0.14 sec. (104.34 ticks)
Found incumbent of value 14.000000 after 0.20 sec. (141.94 ticks)
Probing fixed 296 vars, tightened 0 bounds.
Probing changed sense of 20 constraints.
Probing time = 0.08 sec. (39.11 ticks)
Cover probing fixed 0 vars, tightened 74 bounds.
Tried aggregator 3 times.
MIP Presolve eliminated 463 rows and 305 columns.
MIP Presolve modified 60 coefficients.
Aggregator did 77 substitutions.
Reduced MIP has 3228 rows, 2197 columns, and 12910 nonzeros.
Reduced MIP has 2197 binaries, 0 generals, 0 SOSs, and 0 indicators.
Presolve time = 0.04 sec. (24.57 ticks)
Probing time = 0.00 sec. (3.58 ticks)
Tried aggregator 1 time.
Detecting symmetries...
Reduced MIP has 3228 rows, 2197 columns, and 12910 nonzeros.
Reduced MIP has 2197 binaries, 0 generals, 0 SOSs, and 0 indicators.
Presolve time = 0.01 sec. (8.62 ticks)
Probing time = 0.01 sec. (3.57 ticks)
Clique table members: 8853.
MIP emphasis: balance optimality and feasibility.
MIP search method: dynamic search.
Parallel mode: none, using 1 thread.
Root relaxation solution time = 0.25 sec. (200.67 ticks)

        Nodes                                         Cuts/
   Node  Left     Objective  IInf  Best Integer    Best Bound    ItCnt     Gap

*     0+    0                           14.0000      442.0000              --- 
      0     0       67.0000   631       14.0000       67.0000     2358  378.57%
      0     0       66.0000   440       14.0000   Cliques: 23     2520  371.43%
      0     0       66.0000   544       14.0000     Cuts: 135     2859  371.43%
*     0+    0                           20.0000       66.0000           230.00%
Detecting symmetries...
      0     2       66.0000   474       20.0000       66.0000     2859  230.00%
Elapsed time = 2.40 sec. (1765.86 ticks, tree = 0.01 MB, solutions = 2)
      1     3       66.0000   486       20.0000       66.0000     6753  230.00%
      3     5       66.0000   465       20.0000       66.0000     9891  230.00%
      9    11       66.0000   458       20.0000       66.0000    11955  230.00%
     29    21       66.0000   360       20.0000       66.0000    14722  230.00%
     40    32       66.0000   222       20.0000       66.0000    16655  230.00%
     70    42       66.0000   280       20.0000       66.0000    19415  230.00%
    146    44       66.0000   261       20.0000       66.0000    21759  230.00%
    191    56       64.0000    76       20.0000       66.0000    23852  230.00%
*   206    49      integral     0       64.0000       66.0000    24905    3.12%
    207    47        cutoff             64.0000       66.0000    25061    3.12%
*   228     1      integral     0       66.0000       66.0000    27656    0.00%

Clique cuts applied:  24
Implied bound cuts applied:  1
Zero-half cuts applied:  5

Root node processing (before b&c):
  Real time             =    2.37 sec. (1751.01 ticks)
Sequential b&c:
  Real time             =    4.25 sec. (3233.86 ticks)
                          ------------
Total (root+branch&cut) =    6.62 sec. (4984.87 ticks)
Solution is feasible.

---------------------
@@@ MIP_optimal
>>> Benchmark mc2024_track1_150.cnf k 2 OPT 66 TimeCost 17.888115882873535 TimeSolve 6.664358377456665 TimeRead 0.0690927505493164 TimeTrans 11.154664754867554
